c Random generated cnf formula, satisfiable: true
p cnf 10 50
-2 7 3 0
-4 -1 -5 0
-4 -10 2 0
-3 -1 10 0
10 -4 9 0
6 -5 4 0
-4 9 5 0
-1 -5 9 0
3 10 7 0
4 -9 -3 0
8 -1 -5 0
1 6 3 0
6 -10 -2 0
-10 -1 6 0
7 -5 -4 0
8 -5 -2 0
-7 4 8 0
-3 4 7 0
8 6 -7 0
2 -10 -6 0
3 -5 4 0
10 -9 -6 0
1 8 10 0
8 -10 -2 0
-7 8 6 0
2 5 -6 0
-1 -3 4 0
-9 -3 -2 0
-9 -5 -2 0
3 -10 9 0
-1 5 -8 0
-4 2 6 0
-6 -10 9 0
1 -5 10 0
-5 -3 2 0
-3 -2 5 0
8 10 5 0
-3 2 -4 0
-1 -5 4 0
3 7 4 0
8 4 6 0
7 -6 9 0
-9 5 6 0
-4 -1 -7 0
8 2 -1 0
2 6 7 0
7 -9 8 0
2 -4 -8 0
-5 1 -3 0
7 -9 -4 0
